
Gurobi 10.0.1 (linux64) logging started Sun Nov 26 15:37:29 2023

Set parameter LogFile to value "ArtificialInstance/ExperimentV2/S2T5K2/BaRo/gurobi1.txt"
Gurobi Optimizer version 10.0.1 build v10.0.1rc0 (linux64)

CPU model: AMD EPYC 7H12 64-Core Processor, instruction set [SSE2|AVX|AVX2]
Thread count: 128 physical cores, 128 logical processors, using up to 32 threads

Academic license 656792 - for non-commercial use only - registered to b.___@student.vu.nl
Optimize a model with 2682 rows, 4081 columns and 14082 nonzeros
Model fingerprint: 0x55232d30
Variable types: 1 continuous, 4080 integer (4080 binary)
Coefficient statistics:
  Matrix range     [1e+00, 4e+01]
  Objective range  [1e+00, 2e+01]
  Bounds range     [1e+00, 1e+00]
  RHS range        [1e+00, 1e+00]
Found heuristic solution: objective 587.4332168
Presolve time: 0.02s
Presolved: 2682 rows, 4081 columns, 14082 nonzeros
Variable types: 1 continuous, 4080 integer (4080 binary)

Root relaxation: objective 4.337144e+01, 2850 iterations, 0.10 seconds (0.08 work units)

    Nodes    |    Current Node    |     Objective Bounds      |     Work
 Expl Unexpl |  Obj  Depth IntInf | Incumbent    BestBd   Gap | It/Node Time

     0     0   43.37144    0  486  587.43322   43.37144  92.6%     -    0s
H    0     0                     314.1670275   43.37144  86.2%     -    0s
H    0     0                      80.1483482   43.37144  45.9%     -    0s
     0     0   49.78964    0  697   80.14835   49.78964  37.9%     -    0s
H    0     0                      72.9956446   49.78964  31.8%     -    0s
     0     0   54.26042    0  741   72.99564   54.26042  25.7%     -    0s
     0     0   54.26099    0  825   72.99564   54.26099  25.7%     -    0s
H    0     0                      70.3983763   56.33444  20.0%     -    0s
     0     0   56.33444    0  683   70.39838   56.33444  20.0%     -    0s
H    0     0                      66.6989042   56.33444  15.5%     -    0s
     0     0   56.73253    0  669   66.69890   56.73253  14.9%     -    0s
     0     0   56.73253    0  671   66.69890   56.73253  14.9%     -    0s
     0     0   58.24288    0  782   66.69890   58.24288  12.7%     -    1s
     0     0   58.25079    0  741   66.69890   58.25079  12.7%     -    1s
     0     0   58.25810    0  798   66.69890   58.25810  12.7%     -    1s
     0     0   58.25810    0  801   66.69890   58.25810  12.7%     -    1s
     0     0   58.83835    0  739   66.69890   58.83835  11.8%     -    1s
H    0     0                      63.2588671   58.83835  6.99%     -    1s
     0     0   58.84383    0  758   63.25887   58.84383  6.98%     -    1s
     0     0   58.84406    0  752   63.25887   58.84406  6.98%     -    1s
     0     0   59.09912    0  715   63.25887   59.09912  6.58%     -    1s
     0     0   59.16148    0  741   63.25887   59.16148  6.48%     -    1s
     0     0   59.16175    0  739   63.25887   59.16175  6.48%     -    1s
     0     0   59.31250    0  864   63.25887   59.31250  6.24%     -    1s
     0     0   59.39761    0  744   63.25887   59.39761  6.10%     -    1s
     0     0   59.39761    0  747   63.25887   59.39761  6.10%     -    1s
     0     0   59.52069    0  763   63.25887   59.52069  5.91%     -    1s
     0     0   59.52924    0  762   63.25887   59.52924  5.90%     -    1s
     0     0   59.52944    0  761   63.25887   59.52944  5.90%     -    1s
     0     0   59.55649    0  902   63.25887   59.55649  5.85%     -    1s
     0     0   59.55842    0  911   63.25887   59.55842  5.85%     -    1s
     0     0   59.55895    0  897   63.25887   59.55895  5.85%     -    1s
     0     0   59.55895    0  834   63.25887   59.55895  5.85%     -    1s
     0     0   59.55895    0  487   63.25887   59.55895  5.85%     -    2s
     0     0   59.55895    0  769   63.25887   59.55895  5.85%     -    2s
     0     0   59.55895    0  692   63.25887   59.55895  5.85%     -    2s
     0     0   59.55895    0  688   63.25887   59.55895  5.85%     -    2s
     0     0   59.56465    0  677   63.25887   59.56465  5.84%     -    2s
     0     0   59.56743    0  753   63.25887   59.56743  5.84%     -    2s
     0     0   59.81303    0  805   63.25887   59.81303  5.45%     -    2s
     0     0   59.85933    0  780   63.25887   59.85933  5.37%     -    2s
     0     0   59.87621    0  837   63.25887   59.87621  5.35%     -    2s
     0     0   59.87621    0  838   63.25887   59.87621  5.35%     -    2s
     0     0   59.87805    0  849   63.25887   59.87805  5.34%     -    2s
     0     0   59.87805    0  849   63.25887   59.87805  5.34%     -    2s
     0     0   59.87805    0  857   63.25887   59.87805  5.34%     -    2s
     0     0   59.87805    0  855   63.25887   59.87805  5.34%     -    3s
     0     2   59.87805    0  855   63.25887   59.87805  5.34%     -    3s

Cutting planes:
  Gomory: 14
  Zero half: 83
  RLT: 70

Explored 50 nodes (29469 simplex iterations) in 3.70 seconds (2.52 work units)
Thread count was 32 (of 128 available processors)

Solution count 7: 63.2589 66.6989 70.3984 ... 587.433

Optimal solution found (tolerance 1.00e-04)
Best objective 6.325886713898e+01, best bound 6.325886713898e+01, gap 0.0000%
